Maximize
  obj: x1 + x2 + x3 + x4 + x5 + x6 + x7

Subject To
  R0: x1 + x2 - x3 <= 1
  R1: x1 - x2 + x3 <= 1
  R2: 2 x1 - x2 - x3 + 2 x4 <= 2
  R3: 2 x1 + 2 x5 <= 2
  R4: 2 x1 + 2 x6 <= 2
  R5: 2 x1 + 2 x7 <= 2
  R6: - x1 + x2 + x3 - x4 <= 1
  R7: x2 - x3 + x4 <= 1
  R8: 2 x2 - x4 + 2 x5 <= 2
  R9: 2 x2 - x4 + 2 x6 <= 2
  R10: 2 x2 + 2 x7 <= 2
  R11: - x2 + x3 + x4 <= 1
  R12: 2 x3 - x4 + 2 x5 <= 2
  R13: 2 x3 - x4 + 2 x6 <= 2
  R14: 2 x3 + 2 x7 <= 2
  R15: x4 + x5 - x6 <= 1
  R16: x4 - x5 + x6 <= 1
  R17: 2 x4 - x5 - x6 + 2 x7 <= 2
  R18: - x4 + x5 + x6 - x7 <= 1
  R19: x5 - x6 + x7 <= 1
  R20: - x5 + x6 + x7 <= 1

Bounds

Binaries
  x1 x2 x3 x4 x5 x6 x7

End
